HFVRP/X106-FSMD.vrp
NAME: X106-FSMD
COMMENT: Generated by Uchoa, Pecin, Pessoa, Poggi, Subramanian, and Vidal (2013). Modified by Sadykov, Pessoa and Uchoa (2017). Converted to PyVRP's VRPLIB dialect.
TYPE: HFVRP
DIMENSION: 106
VEHICLES: 315
EDGE_WEIGHT_TYPE: EUC_2D
NODE_COORD_SECTION
1	0	0
2	615	190
3	890	200
4	983	684
5	959	743
6	569	146
7	969	841
8	607	256
9	936	274
10	650	221
11	943	547
12	789	172
13	632	209
14	849	163
15	829	283
16	618	147
17	925	627
18	925	192
19	903	460
20	666	368
21	906	622
22	833	185
23	411	136
24	989	691
25	601	221
26	429	500
27	522	218
28	760	346
29	674	183
30	720	99
31	951	705
32	898	154
33	953	661
34	425	212
35	775	159
36	900	649
37	943	290
38	724	315
39	927	705
40	865	817
41	872	161
42	966	478
43	974	694
44	669	159
45	603	140
46	598	122
47	715	230
48	777	693
49	890	231
50	775	230
51	908	849
52	625	138
53	490	185
54	643	163
55	849	183
56	998	675
57	619	495
58	844	67
59	861	276
60	888	679
61	641	141
62	869	766
63	495	244
64	852	110
65	976	143
66	921	783
67	688	211
68	857	199
69	758	636
70	990	213
71	973	806
72	748	240
73	737	95
74	933	664
75	770	172
76	616	250
77	641	146
78	867	199
79	544	327
80	711	277
81	893	778
82	992	868
83	685	11
84	869	204
85	646	260
86	849	185
87	918	400
88	645	144
89	923	339
90	931	686
91	582	212
92	1000	309
93	572	192
94	676	183
95	989	59
96	798	642
97	582	39
98	686	188
99	995	720
100	802	185
101	603	126
102	657	185
103	574	195
104	661	174
105	614	195
106	961	162
DEMAND_SECTION
1	0
2	81
3	64
4	51
5	61
6	71
7	83
8	92
9	66
10	92
11	78
12	98
13	88
14	70
15	72
16	92
17	84
18	51
19	81
20	71
21	98
22	70
23	53
24	76
25	83
26	83
27	77
28	82
29	88
30	58
31	97
32	53
33	52
34	89
35	87
36	50
37	73
38	58
39	100
40	59
41	67
42	75
43	65
44	80
45	65
46	63
47	59
48	75
49	56
50	76
51	83
52	85
53	96
54	58
55	50
56	54
57	81
58	82
59	99
60	67
61	88
62	92
63	97
64	50
65	62
66	59
67	83
68	86
69	86
70	55
71	99
72	88
73	99
74	80
75	98
76	87
77	81
78	58
79	57
80	87
81	50
82	96
83	63
84	75
85	79
86	100
87	99
88	95
89	57
90	59
91	94
92	91
93	85
94	95
95	50
96	53
97	66
98	56
99	63
100	86
101	71
102	50
103	65
104	78
105	56
106	72
CAPACITY_SECTION
1	190
2	190
3	190
4	190
5	190
6	190
7	190
8	190
9	190
10	190
11	190
12	190
13	190
14	190
15	190
16	190
17	190
18	190
19	190
20	190
21	190
22	190
23	190
24	190
25	190
26	190
27	190
28	190
29	190
30	190
31	190
32	190
33	190
34	190
35	190
36	190
37	190
38	190
39	190
40	190
41	190
42	190
43	190
44	190
45	190
46	190
47	190
48	190
49	190
50	190
51	190
52	190
53	190
54	190
55	190
56	190
57	190
58	190
59	190
60	190
61	190
62	190
63	190
64	190
65	190
66	190
67	190
68	190
69	190
70	190
71	190
72	190
73	190
74	190
75	190
76	190
77	190
78	190
79	190
80	190
81	190
82	190
83	190
84	190
85	190
86	190
87	190
88	190
89	190
90	190
91	190
92	190
93	190
94	190
95	190
96	190
97	190
98	190
99	190
100	190
101	190
102	190
103	190
104	190
105	190
106	467
107	467
108	467
109	467
110	467
111	467
112	467
113	467
114	467
115	467
116	467
117	467
118	467
119	467
120	467
121	467
122	467
123	467
124	467
125	467
126	467
127	467
128	467
129	467
130	467
131	467
132	467
133	467
134	467
135	467
136	467
137	467
138	467
139	467
140	467
141	467
142	467
143	467
144	467
145	467
146	467
147	467
148	467
149	467
150	467
151	467
152	467
153	467
154	467
155	467
156	467
157	467
158	467
159	467
160	467
161	467
162	467
163	467
164	467
165	467
166	467
167	467
168	467
169	467
170	467
171	467
172	467
173	467
174	467
175	467
176	467
177	467
178	467
179	467
180	467
181	467
182	467
183	467
184	467
185	467
186	467
187	467
188	467
189	467
190	467
191	467
192	467
193	467
194	467
195	467
196	467
197	467
198	467
199	467
200	467
201	467
202	467
203	467
204	467
205	467
206	467
207	467
208	467
209	467
210	467
211	1143
212	1143
213	1143
214	1143
215	1143
216	1143
217	1143
218	1143
219	1143
220	1143
221	1143
222	1143
223	1143
224	1143
225	1143
226	1143
227	1143
228	1143
229	1143
230	1143
231	1143
232	1143
233	1143
234	1143
235	1143
236	1143
237	1143
238	1143
239	1143
240	1143
241	1143
242	1143
243	1143
244	1143
245	1143
246	1143
247	1143
248	1143
249	1143
250	1143
251	1143
252	1143
253	1143
254	1143
255	1143
256	1143
257	1143
258	1143
259	1143
260	1143
261	1143
262	1143
263	1143
264	1143
265	1143
266	1143
267	1143
268	1143
269	1143
270	1143
271	1143
272	1143
273	1143
274	1143
275	1143
276	1143
277	1143
278	1143
279	1143
280	1143
281	1143
282	1143
283	1143
284	1143
285	1143
286	1143
287	1143
288	1143
289	1143
290	1143
291	1143
292	1143
293	1143
294	1143
295	1143
296	1143
297	1143
298	1143
299	1143
300	1143
301	1143
302	1143
303	1143
304	1143
305	1143
306	1143
307	1143
308	1143
309	1143
310	1143
311	1143
312	1143
313	1143
314	1143
315	1143
VEHICLES_UNIT_DISTANCE_COST_SECTION
1	41
2	41
3	41
4	41
5	41
6	41
7	41
8	41
9	41
10	41
11	41
12	41
13	41
14	41
15	41
16	41
17	41
18	41
19	41
20	41
21	41
22	41
23	41
24	41
25	41
26	41
27	41
28	41
29	41
30	41
31	41
32	41
33	41
34	41
35	41
36	41
37	41
38	41
39	41
40	41
41	41
42	41
43	41
44	41
45	41
46	41
47	41
48	41
49	41
50	41
51	41
52	41
53	41
54	41
55	41
56	41
57	41
58	41
59	41
60	41
61	41
62	41
63	41
64	41
65	41
66	41
67	41
68	41
69	41
70	41
71	41
72	41
73	41
74	41
75	41
76	41
77	41
78	41
79	41
80	41
81	41
82	41
83	41
84	41
85	41
86	41
87	41
88	41
89	41
90	41
91	41
92	41
93	41
94	41
95	41
96	41
97	41
98	41
99	41
100	41
101	41
102	41
103	41
104	41
105	41
106	100
107	100
108	100
109	100
110	100
111	100
112	100
113	100
114	100
115	100
116	100
117	100
118	100
119	100
120	100
121	100
122	100
123	100
124	100
125	100
126	100
127	100
128	100
129	100
130	100
131	100
132	100
133	100
134	100
135	100
136	100
137	100
138	100
139	100
140	100
141	100
142	100
143	100
144	100
145	100
146	100
147	100
148	100
149	100
150	100
151	100
152	100
153	100
154	100
155	100
156	100
157	100
158	100
159	100
160	100
161	100
162	100
163	100
164	100
165	100
166	100
167	100
168	100
169	100
170	100
171	100
172	100
173	100
174	100
175	100
176	100
177	100
178	100
179	100
180	100
181	100
182	100
183	100
184	100
185	100
186	100
187	100
188	100
189	100
190	100
191	100
192	100
193	100
194	100
195	100
196	100
197	100
198	100
199	100
200	100
201	100
202	100
203	100
204	100
205	100
206	100
207	100
208	100
209	100
210	100
211	245
212	245
213	245
214	245
215	245
216	245
217	245
218	245
219	245
220	245
221	245
222	245
223	245
224	245
225	245
226	245
227	245
228	245
229	245
230	245
231	245
232	245
233	245
234	245
235	245
236	245
237	245
238	245
239	245
240	245
241	245
242	245
243	245
244	245
245	245
246	245
247	245
248	245
249	245
250	245
251	245
252	245
253	245
254	245
255	245
256	245
257	245
258	245
259	245
260	245
261	245
262	245
263	245
264	245
265	245
266	245
267	245
268	245
269	245
270	245
271	245
272	245
273	245
274	245
275	245
276	245
277	245
278	245
279	245
280	245
281	245
282	245
283	245
284	245
285	245
286	245
287	245
288	245
289	245
290	245
291	245
292	245
293	245
294	245
295	245
296	245
297	245
298	245
299	245
300	245
301	245
302	245
303	245
304	245
305	245
306	245
307	245
308	245
309	245
310	245
311	245
312	245
313	245
314	245
315	245
DEPOT_SECTION
1
EOF
